data/CVRPLIB/Vrp-Set-XML100/instances/XML100_1215_23.vrp
NAME : XML100_1215_23
COMMENT : Generated by Queiroga, Sadykov, Uchoa, and Vidal (2021)
TYPE : CVRP
DIMENSION : 101
EDGE_WEIGHT_TYPE : EUC_2D
CAPACITY : 21
NODE_COORD_SECTION
1    703  796 
2    428  33  
3    332  153 
4    292  174 
5    396  93  
6    495  179 
7    375  470 
8    541  565 
9    427  54  
10   409  39  
11   390  156 
12   601  386 
13   647  566 
14   584  463 
15   459  68  
16   512  402 
17   620  476 
18   433  47  
19   424  25  
20   449  55  
21   542  419 
22   438  44  
23   376  415 
24   552  387 
25   540  451 
26   642  55  
27   545  392 
28   563  396 
29   583  424 
30   442  14  
31   404  75  
32   472  610 
33   483  422 
34   393  391 
35   543  370 
36   309  226 
37   404  380 
38   467  40  
39   389  100 
40   372  86  
41   399  52  
42   403  634 
43   520  446 
44   504  402 
45   599  427 
46   485  396 
47   414  392 
48   398  33  
49   696  396 
50   528  135 
51   657  466 
52   512  438 
53   517  464 
54   439  733 
55   450  11  
56   628  700 
57   338  417 
58   614  233 
59   303  121 
60   376  113 
61   436  244 
62   557  453 
63   461  326 
64   978  432 
65   379  36  
66   392  273 
67   477  70  
68   447  40  
69   545  560 
70   624  540 
71   717  39  
72   442  491 
73   529  432 
74   568  126 
75   535  382 
76   411  15  
77   691  389 
78   534  434 
79   375  122 
80   507  423 
81   652  608 
82   431  352 
83   627  315 
84   337  52  
85   346  162 
86   444  47  
87   396  273 
88   454  27  
89   438  53  
90   529  425 
91   368  8   
92   411  70  
93   511  431 
94   660  380 
95   614  439 
96   567  378 
97   546  376 
98   556  431 
99   419  23  
100  420  16  
101  480  727 
DEMAND_SECTION
1    0   
2    1   
3    1   
4    1   
5    1   
6    1   
7    1   
8    1   
9    1   
10   1   
11   1   
12   1   
13   1   
14   1   
15   1   
16   1   
17   1   
18   1   
19   1   
20   1   
21   1   
22   1   
23   1   
24   1   
25   1   
26   1   
27   1   
28   1   
29   1   
30   1   
31   1   
32   1   
33   1   
34   1   
35   1   
36   1   
37   1   
38   1   
39   1   
40   1   
41   1   
42   1   
43   1   
44   1   
45   1   
46   1   
47   1   
48   1   
49   1   
50   1   
51   1   
52   1   
53   1   
54   1   
55   1   
56   1   
57   1   
58   1   
59   1   
60   1   
61   1   
62   1   
63   1   
64   1   
65   1   
66   1   
67   1   
68   1   
69   1   
70   1   
71   1   
72   1   
73   1   
74   1   
75   1   
76   1   
77   1   
78   1   
79   1   
80   1   
81   1   
82   1   
83   1   
84   1   
85   1   
86   1   
87   1   
88   1   
89   1   
90   1   
91   1   
92   1   
93   1   
94   1   
95   1   
96   1   
97   1   
98   1   
99   1   
100  1   
101  1   
DEPOT_SECTION
1
-1
EOF
