data/CVRPLIB/Vrp-Set-XML100/solutions/XML100_1215_23.sol
Route #1: 63 70 25 37 87 54 29 18 98 99 75 47 64 90 83 39 59 78 10 60 62
Route #2: 50 48 76 93 11 95 27 23 96 34 74 26 20 97 28 44 94 16 12 80
Route #3: 55 7 68 52 42 51 92 79 32 45 43 15 89 72 77 24 61 13 69
Route #4: 31 71 22 33 36 46 81 86 65 84 2 58 3 35 56 6 41 53 100
Route #5: 5 38 4 30 91 40 9 1 17 8 88 21 67 85 19 14 66 49 73 57 82
Cost 7905
